(set-info :smt-lib-version 2.6)
(set-logic LRA)
(set-info :source |
   Monniaux, David; Quantifier Elimination by Lazy Model Enumeration, CAV 2010
|)
(set-info :category "random")
; ./Mjollnir_examples/B3/formula_195.m
(set-info :status sat)
(assert
 (forall ((|v11:0| Real) )(forall ((|v10:1| Real) )(forall ((|v9:2| Real) )(forall ((|v8:3| Real) )(exists ((|v7:4| Real) )(exists ((|v6:5| Real) )(exists ((|v5:6| Real) )(exists ((|v4:7| Real) )(forall ((|v3:8| Real) )(forall ((|v2:9| Real) )(forall ((|v1:10| Real) )(forall ((|v0:11| Real) )(let ((?x26 (- 5)))
(let ((?x507 (+ (+ (* (- 12) |v3:8|) (* 7 |v2:9|)) (* 10 |v11:0|))))
(let ((?x85 8))
(let ((?x499 (+ (+ (* ?x85 |v8:3|) (* (- 15) |v0:11|)) (* 17 |v1:10|))))
(let ((?x34 (- 12)))
(let ((?x113 (- 10)))
(let ((?x317 (* ?x113 |v3:8|)))
(let ((?x494 (+ (+ (+ (* (- 20) |v7:4|) (* (- 11) |v6:5|)) ?x317) (* (- 9) |v0:11|))))
(let ((?x38 7))
(let ((?x486 (+ (+ (* (- 2) |v9:2|) (* ?x113 |v1:10|)) (* (- 14) |v10:1|))))
(let (($x503 (and (and (<= (+ ?x486 (* 14 |v11:0|)) ?x38) (<= ?x494 ?x34)) (<= (+ ?x499 (* (- 20) |v1:10|)) ?x85))))
(let ((?x117 2))
(let ((?x51 18))
(let ((?x222 (* ?x51 |v5:6|)))
(let ((?x477 (+ (+ (* (- 18) |v1:10|) (* (- 2) |v5:6|)) (* (- 6) |v5:6|))))
(let ((?x176 (- 15)))
(let ((?x469 (+ (+ (* (- 20) |v4:7|) (* 17 |v2:9|)) (* (- 18) |v11:0|))))
(let (($x480 (and (<= (+ ?x469 (* (- 16) |v5:6|)) ?x176) (<= (+ ?x477 ?x222) ?x117))))
(let ((?x42 6))
(let ((?x461 (+ (+ (* 16 |v6:5|) (* 13 |v1:10|)) (* ?x85 |v9:2|))))
(let ((?x144 11))
(let ((?x453 (+ (+ (* 20 |v2:9|) (* 14 |v7:4|)) (* ?x26 |v6:5|))))
(let (($x465 (or (<= (+ ?x453 (* 19 |v8:3|)) ?x144) (<= (+ ?x461 (* (- 18) |v9:2|)) ?x42))))
(let ((?x172 (- 19)))
(let ((?x79 (- 3)))
(let ((?x371 (* ?x79 |v9:2|)))
(let ((?x10 (- 1)))
(let ((?x294 (* ?x10 |v8:3|)))
(let ((?x446 (+ (+ (+ (* (- 17) |v2:9|) (* (- 2) |v11:0|)) ?x294) ?x371)))
(let ((?x234 5))
(let ((?x92 (- 7)))
(let ((?x231 (* ?x92 |v11:0|)))
(let ((?x441 (+ (+ (+ (* ?x10 |v1:10|) (* 0 |v4:7|)) ?x231) (* (- 14) |v2:9|))))
(let ((?x99 16))
(let ((?x130 (- 8)))
(let ((?x190 (* ?x130 |v4:7|)))
(let ((?x434 (+ (+ (+ (* (- 11) |v7:4|) (* 0 |v11:0|)) ?x190) (* ?x38 |v7:4|))))
(let ((?x150 (- 17)))
(let ((?x425 (+ (+ (* 0 |v5:6|) (* ?x92 |v5:6|)) (* (- 9) |v5:6|))))
(let (($x449 (and (or (<= (+ ?x425 (* (- 16) |v2:9|)) ?x150) (<= ?x434 ?x99)) (and (<= ?x441 ?x234) (<= ?x446 ?x172)))))
(let ((?x246 (- 14)))
(let ((?x14 (- 20)))
(let ((?x414 (* ?x14 |v7:4|)))
(let ((?x413 (+ (+ (* 10 |v0:11|) (* ?x85 |v11:0|)) (* (- 11) |v8:3|))))
(let ((?x311 (* ?x172 |v7:4|)))
(let ((?x407 (+ (+ (+ (* ?x172 |v3:8|) (* ?x42 |v11:0|)) (* (- 11) |v1:10|)) ?x311)))
(let ((?x64 (- 16)))
(let ((?x167 17))
(let ((?x342 (* ?x167 |v6:5|)))
(let ((?x401 (+ (+ (+ (* 12 |v6:5|) (* ?x176 |v1:10|)) (* ?x144 |v10:1|)) ?x342)))
(let ((?x125 4))
(let ((?x106 (- 2)))
(let ((?x395 (* ?x106 |v9:2|)))
(let ((?x396 (+ (+ (+ (* ?x92 |v6:5|) (* (- 18) |v6:5|)) (* ?x79 |v8:3|)) ?x395)))
(let (($x418 (and (or (<= ?x396 ?x125) (<= ?x401 ?x64)) (and (<= ?x407 ?x117) (<= (+ ?x413 ?x414) ?x246)))))
(let ((?x188 (- 18)))
(let ((?x45 (- 4)))
(let ((?x268 (* ?x45 |v9:2|)))
(let ((?x216 12))
(let ((?x384 (+ (+ (+ (* 9 |v11:0|) (* ?x125 |v3:8|)) (* ?x10 |v5:6|)) (* (- 6) |v9:2|))))
(let (($x390 (or (<= ?x384 ?x216) (<= (+ (+ (+ (* ?x113 |v5:6|) |v7:4|) (* ?x188 |v7:4|)) ?x268) ?x188))))
(let ((?x109 19))
(let ((?x377 (+ (+ (+ ?x371 (* 14 |v1:10|)) (* 15 |v6:5|)) (* ?x172 |v10:1|))))
(let (($x367 (<= (+ (+ (+ (* ?x106 |v1:10|) (* ?x85 |v6:5|)) ?x222) (* ?x117 |v7:4|)) ?x144)))
(let (($x361 (<= (+ (+ (+ (* ?x167 |v8:3|) ?x317) (* ?x64 |v10:1|)) (* ?x150 |v11:0|)) ?x42)))
(let ((?x352 (+ (+ (+ (* ?x10 |v11:0|) (* 10 |v3:8|)) (* ?x216 |v6:5|)) (* ?x117 |v5:6|))))
(let ((?x31 (- 11)))
(let ((?x345 (+ (+ (+ (* ?x130 |v7:4|) (* 10 |v4:7|)) ?x342) (* 14 |v6:5|))))
(let ((?x332 (* ?x113 |v5:6|)))
(let ((?x240 (* ?x172 |v0:11|)))
(let ((?x333 (+ (+ (+ (* 0 |v4:7|) (* 13 |v4:7|)) ?x240) ?x332)))
(let ((?x327 (+ (+ (+ (* ?x38 |v11:0|) (* ?x150 |v1:10|)) (* (- 13) |v1:10|)) (* ?x38 |v8:3|))))
(let ((?x151 (* ?x150 |v8:3|)))
(let ((?x318 (+ (+ (+ (* 13 |v9:2|) (* 14 |v5:6|)) ?x151) ?x317)))
(let (($x313 (<= (+ (+ (+ (* ?x176 |v0:11|) (* ?x130 |v11:0|)) (* ?x144 |v11:0|)) ?x311) ?x234)))
(let (($x370 (and (and (and $x313 (<= ?x318 ?x117)) (and (<= ?x327 ?x92) (<= ?x333 ?x150))) (or (or (<= ?x345 ?x31) (<= ?x352 ?x51)) (and $x361 $x367)))))
(let (($x512 (or (or $x370 (or (or (<= ?x377 ?x109) $x390) $x418)) (and (or $x449 (and $x465 $x480)) (or $x503 (<= (+ ?x507 |v4:7|) ?x26))))))
(let (($x301 (<= (+ (+ (+ ?x294 (* ?x79 |v7:4|)) (* ?x26 |v0:11|)) (* ?x51 |v3:8|)) 1)))
(let ((?x291 (+ (+ (+ (* ?x51 |v10:1|) (* ?x144 |v11:0|)) (* ?x117 |v7:4|)) (* ?x38 |v9:2|))))
(let ((?x283 (+ (+ (+ (* ?x42 |v0:11|) (* ?x45 |v0:11|)) (* 20 |v8:3|)) (* ?x130 |v2:9|))))
(let ((?x269 20))
(let (($x276 (<= (+ (+ (+ ?x268 (* ?x269 |v1:10|)) (* ?x117 |v11:0|)) (* ?x10 |v9:2|)) ?x269)))
(let ((?x263 (+ (+ (+ (* 0 |v6:5|) (* ?x234 |v11:0|)) (* ?x51 |v3:8|)) (* ?x42 |v8:3|))))
(let ((?x255 (+ (+ (+ (* ?x92 |v0:11|) (* ?x45 |v4:7|)) (* ?x150 |v3:8|)) (* ?x144 |v8:3|))))
(let ((?x245 (+ (+ (+ (* (- 13) |v4:7|) ?x240) (* ?x150 |v2:9|)) (* ?x117 |v3:8|))))
(let ((?x163 (- 13)))
(let (($x237 (<= (+ (+ (+ (* ?x79 |v10:1|) (* ?x113 |v7:4|)) ?x231) (* ?x234 |v4:7|)) ?x163)))
(let (($x304 (or (or (or $x237 (<= ?x245 ?x246)) (and (<= ?x255 ?x167) (<= ?x263 ?x99))) (or (or $x276 (<= ?x283 ?x150)) (or (<= ?x291 ?x26) $x301)))))
(let (($x224 (<= (+ (+ (+ (* ?x144 |v10:1|) (* 9 |v1:10|)) |v11:0|) ?x222) ?x34)))
(let ((?x215 (+ (+ (+ (* ?x176 |v6:5|) (* ?x106 |v10:1|)) (* ?x188 |v7:4|)) (* ?x150 |v6:5|))))
(let ((?x205 (+ (+ (* (- 6) |v4:7|) (* ?x176 |v9:2|)) (* (- 9) |v11:0|))))
(let ((?x194 (* ?x188 |v6:5|)))
(let (($x196 (<= (+ (+ (+ (* ?x188 |v7:4|) ?x190) (* 0 |v4:7|)) ?x194) ?x130)))
(let ((?x184 (* ?x42 |v11:0|)))
(let ((?x185 (+ (+ (+ (* ?x176 |v3:8|) (* ?x31 |v2:9|)) (* 0 |v2:9|)) ?x184)))
(let ((?x171 (+ (+ (+ (* 9 |v5:6|) (* ?x163 |v5:6|)) (* ?x167 |v4:7|)) (* ?x34 |v1:10|))))
(let ((?x158 (+ (+ (+ ?x151 (* 15 |v5:6|)) (* ?x92 |v6:5|)) (* ?x26 |v4:7|))))
(let (($x227 (or (and (and (<= ?x158 ?x79) (<= ?x171 ?x172)) (and (<= ?x185 ?x45) $x196)) (and (<= (+ ?x205 (* ?x51 |v1:10|)) ?x14) (and (<= ?x215 ?x216) $x224)))))
(let ((?x18 (- 6)))
(let ((?x146 (+ (+ (+ |v2:9| (* ?x125 |v10:1|)) (* 9 |v11:0|)) (* ?x144 |v3:8|))))
(let ((?x132 (+ (+ (+ (* ?x42 |v5:6|) (* ?x125 |v9:2|)) (* ?x18 |v7:4|)) (* ?x130 |v10:1|))))
(let ((?x119 (+ (+ (+ (* ?x106 |v0:11|) (* ?x109 |v4:7|)) (* ?x113 |v9:2|)) (* ?x117 |v10:1|))))
(let ((?x101 (+ (+ (+ (* ?x42 |v4:7|) |v8:3|) (* 13 |v9:2|)) (* ?x99 |v10:1|))))
(let ((?x89 14))
(let ((?x90 (* ?x89 |v7:4|)))
(let (($x93 (<= (+ (+ (+ (* ?x79 |v4:7|) (* ?x51 |v2:9|)) (* ?x85 |v8:3|)) ?x90) ?x92)))
(let (($x135 (or (or $x93 (<= ?x101 ?x14)) (and (<= ?x119 3) (<= ?x132 ?x18)))))
(let ((?x73 (+ (+ (+ (* ?x42 |v1:10|) (* ?x18 |v0:11|)) (* 13 |v11:0|)) (* ?x14 |v9:2|))))
(let ((?x63 (+ (+ (+ (* ?x51 |v10:1|) (* ?x10 |v11:0|)) (* ?x31 |v1:10|)) (* 15 |v3:8|))))
(let ((?x44 (+ (+ (+ (* ?x31 |v9:2|) (* ?x34 |v2:9|)) (* ?x38 |v2:9|)) (* ?x42 |v9:2|))))
(let ((?x25 (+ (+ (+ (* ?x10 |v7:4|) (* ?x14 |v4:7|)) (* ?x18 |v7:4|)) (* 13 |v2:9|))))
(let (($x76 (or (or (<= ?x25 ?x26) (<= ?x44 ?x45)) (and (<= ?x63 ?x64) (<= ?x73 ?x10)))))
(or (or (or (or $x76 $x135) (<= ?x146 ?x18)) (and $x227 $x304)) $x512))))))))))))))))))))))))))))))))))))))))))))))))))))))))))))))))))))))))))))))))))))))))))))))))))))))))))))))))))
)
)
)
)
)
)
)
)
)
)
)
)
(check-sat)
(exit)

